3428 1581
3515 2470
3073 1783
5943 1298
5196 4896
6319 9304
2631 1511
4813 4304
5213 4079
3262 3745
9793 4287
4076 5692
3447 4578
5517 3560
4376 474
3407 7418
7 1212
7683 4130
2810 2345
2831 9580
6915 5191
2928 3646
4282 5442
3532 984
3809 9826
3415 6583
7703 1249
6386 2455
3423 3844
4633 5602
1110 9970
1241 8830
2689 3046
7664 9314
4562 2542
103 1471
1521 1891
3157 2220
3534 6981
6892 2967
7926 1375
4816 5899
4896 7567
2722 2090
7025 5720
2865 3207
9255 6192
3300 4739
6092 9256
3223 764
